\ENCODING=ISO-8859-1
\Problem name: ilog.cplex

Minimize
 obj1: 105158 x1 + 103900 x2 + 93967 x3 + 92106 x4 + 107391 x5 + 103884 x6
       + 105507 x7 + 94414 x8 + 94625 x9 + 104204 x10 + 94075 x11 + 90893 x12
       + 95679 x13 + 104017 x14 + 103244 x15 + 106843 x16 + 105741 x17
       + 105453 x18 + 91260 x19 + 92962 x20 + 99796 x21 + 107357 x22
       + 94808 x23 + 101639 x24 + 107284 x25 + 101466 x26 + 105834 x27
       + 90690 x28 + 103707 x29 + 101465 x30 + 103218 x31 + 90891 x32
       + 102241 x33 + 98527 x34 + 101299 x35 + 102062 x36 + 106415 x37
       + 95705 x38 + 98025 x39 + 96587 x40 + 93529 x41 + 107941 x42
       + 106941 x43 + 108925 x44 + 97700 x45 + 104467 x46 + 99271 x47
       + 95020 x48 + 91335 x49 + 96037 x50 + 90679 x51 + 105462 x52
       + 100871 x53 + 90889 x54 + 98558 x55 + 92757 x56 + 92081 x57 + 97569 x58
       + 99069 x59 + 98129 x60 + 91698 x61 + 94510 x62 + 91405 x63 + 93764 x64
       + 106897 x65 + 99830 x66 + 93631 x67 + 100565 x68 + 98503 x69
       + 96749 x70 + 94686 x71 + 99726 x72 + 108084 x73 + 109263 x74
       + 98741 x75 + 93311 x76 + 93113 x77 + 96457 x78 + 92014 x79 + 106691 x80
       + 95207 x81 + 91147 x82 + 108377 x83 + 93969 x84 + 108053 x85
       + 104603 x86 + 92016 x87 + 96469 x88 + 98806 x89 + 105887 x90
       + 92905 x91 + 93915 x92 + 109625 x93 + 101677 x94 + 104005 x95
       + 98078 x96 + 104401 x97 + 90451 x98 + 97875 x99 + 109506 x100
       + 109347 x101 + 90136 x102 + 94515 x103 + 94281 x104 + 90342 x105
       + 108297 x106 + 99282 x107 + 98395 x108 + 103738 x109 + 91255 x110
       + 97625 x111 + 104745 x112 + 92168 x113 + 98532 x114 + 90717 x115
       + 96200 x116 + 92472 x117 + 109627 x118 + 98716 x119 + 95066 x120
       + 106993 x121 + 101506 x122 + 106008 x123 + 108521 x124 + 97038 x125
       + 91505 x126 + 94319 x127 + 105606 x128 + 108014 x129 + 109978 x130
       + 107594 x131 + 105517 x132 + 92166 x133 + 101735 x134 + 106770 x135
       + 101939 x136 + 91900 x137 + 95627 x138 + 97424 x139 + 108818 x140
       + 104332 x141 + 107619 x142 + 108771 x143 + 109247 x144 + 106040 x145
       + 94253 x146 + 108621 x147 + 101012 x148 + 95883 x149 + 90622 x150
       + 109801 x151 + 97345 x152 + 104920 x153 + 109857 x154 + 109143 x155
       + 101339 x156 + 108625 x157 + 91999 x158 + 102924 x159 + 93693 x160
       + 109608 x161 + 95573 x162 + 100541 x163 + 100400 x164 + 94894 x165
       + 93285 x166 + 94776 x167 + 95456 x168 + 105093 x169 + 100078 x170
       + 95625 x171 + 100728 x172 + 96690 x173 + 104167 x174 + 101745 x175
       + 93579 x176 + 92696 x177 + 95512 x178 + 103805 x179 + 99965 x180
       + 105386 x181 + 108094 x182 + 101830 x183 + 103125 x184 + 102993 x185
       + 97491 x186 + 92119 x187 + 100929 x188 + 96039 x189 + 101074 x190
       + 98363 x191 + 98598 x192 + 98314 x193 + 94570 x194 + 106326 x195
       + 107730 x196 + 92587 x197 + 105771 x198 + 91772 x199 + 97433 x200
       + 108850 x201 + 92401 x202 + 91182 x203 + 95108 x204 + 100493 x205
       + 99642 x206 + 92947 x207 + 100737 x208 + 98509 x209 + 99652 x210
       + 90466 x211 + 94016 x212 + 103398 x213 + 109407 x214 + 92978 x215
       + 103970 x216 + 92662 x217 + 101941 x218 + 94511 x219 + 96863 x220
       + 97509 x221 + 109834 x222 + 93350 x223 + 97091 x224 + 100934 x225
       + 109639 x226 + 103812 x227 + 105739 x228 + 104406 x229 + 95615 x230
       + 92721 x231 + 92595 x232 + 100841 x233 + 102404 x234 + 106232 x235
       + 104004 x236 + 92677 x237 + 103180 x238 + 106633 x239 + 101139 x240
       + 105604 x241 + 92314 x242 + 93242 x243 + 101117 x244 + 90848 x245
       + 99754 x246 + 96763 x247 + 96826 x248 + 101912 x249 + 188113 x250
       + 19553 x251 + 20017 x252 + 21632 x253 + 20288 x254 + 18530 x255
       + 21792 x256 + 20212 x257 + 20566 x258 + 20590 x259 + 18415 x260
       + 18706 x261 + 18941 x262 + 21649 x263 + 21500 x264 + 20599 x265
       + 19125 x266 + 19435 x267 + 20830 x268 + 19519 x269 + 18655 x270
       + 21181 x271 + 18864 x272 + 20963 x273 + 19618 x274 + 18572 x275
       + 21217 x276 + 20221 x277 + 21662 x278 + 20638 x279 + 20253 x280
       + 18284 x281 + 20650 x282 + 18782 x283 + 19974 x284 + 20243 x285
       + 21049 x286 + 21134 x287 + 21782 x288 + 20848 x289 + 21218 x290
       + 19704 x291 + 18493 x292 + 19373 x293 + 20264 x294 + 19510 x295
       + 20122 x296 + 20822 x297 + 18966 x298 + 19917 x299 + 15122 x300
Subject To
 c1:   - x3 - x8 + x18 - x22 - x24 - x41 + x47 + x49  = 0
 c2:   - x53 - x58 + x68 - x72 - x74 - x91 + x97 + x99  = 0
 c3:   - x103 - x108 + x118 - x122 - x124 - x141 + x147 + x149  = 0
 c4:   - x153 - x158 + x168 - x172 - x174 - x191 + x197 + x199  = 0
 c5:   - x203 - x208 + x218 - x222 - x224 - x241 + x247 + x249  = 0
 c6:   x2 - x16 + x25 - x33  = 0
 c7:   x52 - x66 + x75 - x83  = 0
 c8:   x102 - x116 + x125 - x133  = 0
 c9:   x152 - x166 + x175 - x183  = 0
 c10:  x202 - x216 + x225 - x233  = 0
 c11:  - x12 - x13 + x17 - x18 + x23 + x34 - x35 + x50  = 0
 c12:  - x62 - x63 + x67 - x68 + x73 + x84 - x85 + x100  = 0
 c13:  - x112 - x113 + x117 - x118 + x123 + x134 - x135 + x150  = 0
 c14:  - x162 - x163 + x167 - x168 + x173 + x184 - x185 + x200  = -1
 c15:  - x212 - x213 + x217 - x218 + x223 + x234 - x235 + x250  = 1
 c16:  - x7 + x8 - x10 - x23 + x26 + x37 + x39 - x45  = 0
 c17:  - x57 + x58 - x60 - x73 + x76 + x87 + x89 - x95  = 0
 c18:  - x107 + x108 - x110 - x123 + x126 + x137 + x139 - x145  = 0
 c19:  - x157 + x158 - x160 - x173 + x176 + x187 + x189 - x195  = 0
 c20:  - x207 + x208 - x210 - x223 + x226 + x237 + x239 - x245  = 0
 c21:  x6 + x13 - x19 - x25 + x27 + x44  = 0
 c22:  x56 + x63 - x69 - x75 + x77 + x94  = 1
 c23:  x106 + x113 - x119 - x125 + x127 + x144  = 0
 c24:  x156 + x163 - x169 - x175 + x177 + x194  = 0
 c25:  x206 + x213 - x219 - x225 + x227 + x244  = 0
 c26:  x10 + x11 - x14 + x24 - x47  = 1
 c27:  x60 + x61 - x64 + x74 - x97  = 0
 c28:  x110 + x111 - x114 + x124 - x147  = 0
 c29:  x160 + x161 - x164 + x174 - x197  = 0
 c30:  x210 + x211 - x214 + x224 - x247  = 0
 c31:  x3 - x5 + x20 - x21 - x26 + x29 + x31 - x34 + x36 - x42 - x44  = 0
 c32:  x53 - x55 + x70 - x71 - x76 + x79 + x81 - x84 + x86 - x92 - x94  = 0
 c33:  x103 - x105 + x120 - x121 - x126 + x129 + x131 - x134 + x136 - x142
       - x144  = 0
 c34:  x153 - x155 + x170 - x171 - x176 + x179 + x181 - x184 + x186 - x192
       - x194  = 0
 c35:  x203 - x205 + x220 - x221 - x226 + x229 + x231 - x234 + x236 - x242
       - x244  = 0
 c36:  x4 - x6 + x7 + x28 - x31 + x32 - x37 - x46  = 0
 c37:  x54 - x56 + x57 + x78 - x81 + x82 - x87 - x96  = 0
 c38:  x104 - x106 + x107 + x128 - x131 + x132 - x137 - x146  = 0
 c39:  x154 - x156 + x157 + x178 - x181 + x182 - x187 - x196  = 1
 c40:  x204 - x206 + x207 + x228 - x231 + x232 - x237 - x246  = 0
 c41:  x16 + x19 - x20 + x21 - x32 + x40 - x49  = -1
 c42:  x66 + x69 - x70 + x71 - x82 + x90 - x99  = 0
 c43:  x116 + x119 - x120 + x121 - x132 + x140 - x149  = 0
 c44:  x166 + x169 - x170 + x171 - x182 + x190 - x199  = 0
 c45:  x216 + x219 - x220 + x221 - x232 + x240 - x249  = 0
 c46:  - x11 - x15 - x28 - x38 + x42  = 0
 c47:  - x61 - x65 - x78 - x88 + x92  = 0
 c48:  - x111 - x115 - x128 - x138 + x142  = 0
 c49:  - x161 - x165 - x178 - x188 + x192  = 0
 c50:  - x211 - x215 - x228 - x238 + x242  = 0
 c51:  x12 + x14 + x15 - x17 + x33 - x40 + x43  = 0
 c52:  x62 + x64 + x65 - x67 + x83 - x90 + x93  = -1
 c53:  x112 + x114 + x115 - x117 + x133 - x140 + x143  = 1
 c54:  x162 + x164 + x165 - x167 + x183 - x190 + x193  = 0
 c55:  x212 + x214 + x215 - x217 + x233 - x240 + x243  = 0
 c56:  - x1 - x2 + x9 - x29 + x45 - x50  = 0
 c57:  - x51 - x52 + x59 - x79 + x95 - x100  = 0
 c58:  - x101 - x102 + x109 - x129 + x145 - x150  = -1
 c59:  - x151 - x152 + x159 - x179 + x195 - x200  = 0
 c60:  - x201 - x202 + x209 - x229 + x245 - x250  = 0
 c61:  - x30 + x38 - x39 + x41 - x48  = 0
 c62:  - x80 + x88 - x89 + x91 - x98  = 0
 c63:  - x130 + x138 - x139 + x141 - x148  = 0
 c64:  - x180 + x188 - x189 + x191 - x198  = 0
 c65:  - x230 + x238 - x239 + x241 - x248  = -1
 c66:  x1 - x4 + x35 - x36 - x43 + x48  = 0
 c67:  x51 - x54 + x85 - x86 - x93 + x98  = 0
 c68:  x101 - x104 + x135 - x136 - x143 + x148  = 0
 c69:  x151 - x154 + x185 - x186 - x193 + x198  = 0
 c70:  x201 - x204 + x235 - x236 - x243 + x248  = 0
 c71:  x5 - x9 + x22 - x27 + x30 + x46  = 0
 c72:  x55 - x59 + x72 - x77 + x80 + x96  = 0
 c73:  x105 - x109 + x122 - x127 + x130 + x146  = 0
 c74:  x155 - x159 + x172 - x177 + x180 + x196  = 0
 c75:  x205 - x209 + x222 - x227 + x230 + x246  = 0
 c76:  4 x1 + 4 x51 + 4 x101 + 4 x151 + 4 x201 - 2 x251 <= 0
 c77:  4 x2 + 4 x52 + 4 x102 + 4 x152 + 4 x202 - 2 x252 <= 0
 c78:  4 x3 + 4 x53 + 4 x103 + 4 x153 + 4 x203 - 2 x253 <= 0
 c79:  4 x4 + 4 x54 + 4 x104 + 4 x154 + 4 x204 - 2 x254 <= 0
 c80:  4 x5 + 4 x55 + 4 x105 + 4 x155 + 4 x205 - 2 x255 <= 0
 c81:  4 x6 + 4 x56 + 4 x106 + 4 x156 + 4 x206 - 2 x256 <= 0
 c82:  4 x7 + 4 x57 + 4 x107 + 4 x157 + 4 x207 - 2 x257 <= 0
 c83:  4 x8 + 4 x58 + 4 x108 + 4 x158 + 4 x208 - 2 x258 <= 0
 c84:  4 x9 + 4 x59 + 4 x109 + 4 x159 + 4 x209 - 2 x259 <= 0
 c85:  4 x10 + 4 x60 + 4 x110 + 4 x160 + 4 x210 - 2 x260 <= 0
 c86:  4 x11 + 4 x61 + 4 x111 + 4 x161 + 4 x211 - 2 x261 <= 0
 c87:  4 x12 + 4 x62 + 4 x112 + 4 x162 + 4 x212 - 2 x262 <= 0
 c88:  4 x13 + 4 x63 + 4 x113 + 4 x163 + 4 x213 - 2 x263 <= 0
 c89:  4 x14 + 4 x64 + 4 x114 + 4 x164 + 4 x214 - 2 x264 <= 0
 c90:  4 x15 + 4 x65 + 4 x115 + 4 x165 + 4 x215 - 2 x265 <= 0
 c91:  4 x16 + 4 x66 + 4 x116 + 4 x166 + 4 x216 - 2 x266 <= 0
 c92:  4 x17 + 4 x67 + 4 x117 + 4 x167 + 4 x217 - 2 x267 <= 0
 c93:  4 x18 + 4 x68 + 4 x118 + 4 x168 + 4 x218 - 2 x268 <= 0
 c94:  4 x19 + 4 x69 + 4 x119 + 4 x169 + 4 x219 - 2 x269 <= 0
 c95:  4 x20 + 4 x70 + 4 x120 + 4 x170 + 4 x220 - 2 x270 <= 0
 c96:  4 x21 + 4 x71 + 4 x121 + 4 x171 + 4 x221 - 2 x271 <= 0
 c97:  4 x22 + 4 x72 + 4 x122 + 4 x172 + 4 x222 - 2 x272 <= 0
 c98:  4 x23 + 4 x73 + 4 x123 + 4 x173 + 4 x223 - 2 x273 <= 0
 c99:  4 x24 + 4 x74 + 4 x124 + 4 x174 + 4 x224 - 2 x274 <= 0
 c100: 4 x25 + 4 x75 + 4 x125 + 4 x175 + 4 x225 - 2 x275 <= 0
 c101: 4 x26 + 4 x76 + 4 x126 + 4 x176 + 4 x226 - 2 x276 <= 0
 c102: 4 x27 + 4 x77 + 4 x127 + 4 x177 + 4 x227 - 2 x277 <= 0
 c103: 4 x28 + 4 x78 + 4 x128 + 4 x178 + 4 x228 - 2 x278 <= 0
 c104: 4 x29 + 4 x79 + 4 x129 + 4 x179 + 4 x229 - 2 x279 <= 0
 c105: 4 x30 + 4 x80 + 4 x130 + 4 x180 + 4 x230 - 2 x280 <= 0
 c106: 4 x31 + 4 x81 + 4 x131 + 4 x181 + 4 x231 - 2 x281 <= 0
 c107: 4 x32 + 4 x82 + 4 x132 + 4 x182 + 4 x232 - 2 x282 <= 0
 c108: 4 x33 + 4 x83 + 4 x133 + 4 x183 + 4 x233 - 2 x283 <= 0
 c109: 4 x34 + 4 x84 + 4 x134 + 4 x184 + 4 x234 - 2 x284 <= 0
 c110: 4 x35 + 4 x85 + 4 x135 + 4 x185 + 4 x235 - 2 x285 <= 0
 c111: 4 x36 + 4 x86 + 4 x136 + 4 x186 + 4 x236 - 2 x286 <= 0
 c112: 4 x37 + 4 x87 + 4 x137 + 4 x187 + 4 x237 - 2 x287 <= 0
 c113: 4 x38 + 4 x88 + 4 x138 + 4 x188 + 4 x238 - 2 x288 <= 0
 c114: 4 x39 + 4 x89 + 4 x139 + 4 x189 + 4 x239 - 2 x289 <= 0
 c115: 4 x40 + 4 x90 + 4 x140 + 4 x190 + 4 x240 - 2 x290 <= 0
 c116: 4 x41 + 4 x91 + 4 x141 + 4 x191 + 4 x241 - 2 x291 <= 0
 c117: 4 x42 + 4 x92 + 4 x142 + 4 x192 + 4 x242 - 2 x292 <= 0
 c118: 4 x43 + 4 x93 + 4 x143 + 4 x193 + 4 x243 - 2 x293 <= 0
 c119: 4 x44 + 4 x94 + 4 x144 + 4 x194 + 4 x244 - 2 x294 <= 0
 c120: 4 x45 + 4 x95 + 4 x145 + 4 x195 + 4 x245 - 2 x295 <= 0
 c121: 4 x46 + 4 x96 + 4 x146 + 4 x196 + 4 x246 - 2 x296 <= 0
 c122: 4 x47 + 4 x97 + 4 x147 + 4 x197 + 4 x247 - 2 x297 <= 0
 c123: 4 x48 + 4 x98 + 4 x148 + 4 x198 + 4 x248 - 2 x298 <= 0
 c124: 4 x49 + 4 x99 + 4 x149 + 4 x199 + 4 x249 - 2 x299 <= 0
 c125: 4 x50 + 4 x100 + 4 x150 + 4 x200 + 4 x250 - 2 x300 <= 0
Bounds
 0 <= x1 <= 1
 0 <= x2 <= 1
 0 <= x3 <= 1
 0 <= x4 <= 1
 0 <= x5 <= 1
 0 <= x6 <= 1
 0 <= x7 <= 1
 0 <= x8 <= 1
 0 <= x9 <= 1
 0 <= x10 <= 1
 0 <= x11 <= 1
 0 <= x12 <= 1
 0 <= x13 <= 1
 0 <= x14 <= 1
 0 <= x15 <= 1
 0 <= x16 <= 1
 0 <= x17 <= 1
 0 <= x18 <= 1
 0 <= x19 <= 1
 0 <= x20 <= 1
 0 <= x21 <= 1
 0 <= x22 <= 1
 0 <= x23 <= 1
 0 <= x24 <= 1
 0 <= x25 <= 1
 0 <= x26 <= 1
 0 <= x27 <= 1
 0 <= x28 <= 1
 0 <= x29 <= 1
 0 <= x30 <= 1
 0 <= x31 <= 1
 0 <= x32 <= 1
 0 <= x33 <= 1
 0 <= x34 <= 1
 0 <= x35 <= 1
 0 <= x36 <= 1
 0 <= x37 <= 1
 0 <= x38 <= 1
 0 <= x39 <= 1
 0 <= x40 <= 1
 0 <= x41 <= 1
 0 <= x42 <= 1
 0 <= x43 <= 1
 0 <= x44 <= 1
 0 <= x45 <= 1
 0 <= x46 <= 1
 0 <= x47 <= 1
 0 <= x48 <= 1
 0 <= x49 <= 1
 0 <= x50 <= 1
 0 <= x51 <= 1
 0 <= x52 <= 1
 0 <= x53 <= 1
 0 <= x54 <= 1
 0 <= x55 <= 1
 0 <= x56 <= 1
 0 <= x57 <= 1
 0 <= x58 <= 1
 0 <= x59 <= 1
 0 <= x60 <= 1
 0 <= x61 <= 1
 0 <= x62 <= 1
 0 <= x63 <= 1
 0 <= x64 <= 1
 0 <= x65 <= 1
 0 <= x66 <= 1
 0 <= x67 <= 1
 0 <= x68 <= 1
 0 <= x69 <= 1
 0 <= x70 <= 1
 0 <= x71 <= 1
 0 <= x72 <= 1
 0 <= x73 <= 1
 0 <= x74 <= 1
 0 <= x75 <= 1
 0 <= x76 <= 1
 0 <= x77 <= 1
 0 <= x78 <= 1
 0 <= x79 <= 1
 0 <= x80 <= 1
 0 <= x81 <= 1
 0 <= x82 <= 1
 0 <= x83 <= 1
 0 <= x84 <= 1
 0 <= x85 <= 1
 0 <= x86 <= 1
 0 <= x87 <= 1
 0 <= x88 <= 1
 0 <= x89 <= 1
 0 <= x90 <= 1
 0 <= x91 <= 1
 0 <= x92 <= 1
 0 <= x93 <= 1
 0 <= x94 <= 1
 0 <= x95 <= 1
 0 <= x96 <= 1
 0 <= x97 <= 1
 0 <= x98 <= 1
 0 <= x99 <= 1
 0 <= x100 <= 1
 0 <= x101 <= 1
 0 <= x102 <= 1
 0 <= x103 <= 1
 0 <= x104 <= 1
 0 <= x105 <= 1
 0 <= x106 <= 1
 0 <= x107 <= 1
 0 <= x108 <= 1
 0 <= x109 <= 1
 0 <= x110 <= 1
 0 <= x111 <= 1
 0 <= x112 <= 1
 0 <= x113 <= 1
 0 <= x114 <= 1
 0 <= x115 <= 1
 0 <= x116 <= 1
 0 <= x117 <= 1
 0 <= x118 <= 1
 0 <= x119 <= 1
 0 <= x120 <= 1
 0 <= x121 <= 1
 0 <= x122 <= 1
 0 <= x123 <= 1
 0 <= x124 <= 1
 0 <= x125 <= 1
 0 <= x126 <= 1
 0 <= x127 <= 1
 0 <= x128 <= 1
 0 <= x129 <= 1
 0 <= x130 <= 1
 0 <= x131 <= 1
 0 <= x132 <= 1
 0 <= x133 <= 1
 0 <= x134 <= 1
 0 <= x135 <= 1
 0 <= x136 <= 1
 0 <= x137 <= 1
 0 <= x138 <= 1
 0 <= x139 <= 1
 0 <= x140 <= 1
 0 <= x141 <= 1
 0 <= x142 <= 1
 0 <= x143 <= 1
 0 <= x144 <= 1
 0 <= x145 <= 1
 0 <= x146 <= 1
 0 <= x147 <= 1
 0 <= x148 <= 1
 0 <= x149 <= 1
 0 <= x150 <= 1
 0 <= x151 <= 1
 0 <= x152 <= 1
 0 <= x153 <= 1
 0 <= x154 <= 1
 0 <= x155 <= 1
 0 <= x156 <= 1
 0 <= x157 <= 1
 0 <= x158 <= 1
 0 <= x159 <= 1
 0 <= x160 <= 1
 0 <= x161 <= 1
 0 <= x162 <= 1
 0 <= x163 <= 1
 0 <= x164 <= 1
 0 <= x165 <= 1
 0 <= x166 <= 1
 0 <= x167 <= 1
 0 <= x168 <= 1
 0 <= x169 <= 1
 0 <= x170 <= 1
 0 <= x171 <= 1
 0 <= x172 <= 1
 0 <= x173 <= 1
 0 <= x174 <= 1
 0 <= x175 <= 1
 0 <= x176 <= 1
 0 <= x177 <= 1
 0 <= x178 <= 1
 0 <= x179 <= 1
 0 <= x180 <= 1
 0 <= x181 <= 1
 0 <= x182 <= 1
 0 <= x183 <= 1
 0 <= x184 <= 1
 0 <= x185 <= 1
 0 <= x186 <= 1
 0 <= x187 <= 1
 0 <= x188 <= 1
 0 <= x189 <= 1
 0 <= x190 <= 1
 0 <= x191 <= 1
 0 <= x192 <= 1
 0 <= x193 <= 1
 0 <= x194 <= 1
 0 <= x195 <= 1
 0 <= x196 <= 1
 0 <= x197 <= 1
 0 <= x198 <= 1
 0 <= x199 <= 1
 0 <= x200 <= 1
 0 <= x201 <= 1
 0 <= x202 <= 1
 0 <= x203 <= 1
 0 <= x204 <= 1
 0 <= x205 <= 1
 0 <= x206 <= 1
 0 <= x207 <= 1
 0 <= x208 <= 1
 0 <= x209 <= 1
 0 <= x210 <= 1
 0 <= x211 <= 1
 0 <= x212 <= 1
 0 <= x213 <= 1
 0 <= x214 <= 1
 0 <= x215 <= 1
 0 <= x216 <= 1
 0 <= x217 <= 1
 0 <= x218 <= 1
 0 <= x219 <= 1
 0 <= x220 <= 1
 0 <= x221 <= 1
 0 <= x222 <= 1
 0 <= x223 <= 1
 0 <= x224 <= 1
 0 <= x225 <= 1
 0 <= x226 <= 1
 0 <= x227 <= 1
 0 <= x228 <= 1
 0 <= x229 <= 1
 0 <= x230 <= 1
 0 <= x231 <= 1
 0 <= x232 <= 1
 0 <= x233 <= 1
 0 <= x234 <= 1
 0 <= x235 <= 1
 0 <= x236 <= 1
 0 <= x237 <= 1
 0 <= x238 <= 1
 0 <= x239 <= 1
 0 <= x240 <= 1
 0 <= x241 <= 1
 0 <= x242 <= 1
 0 <= x243 <= 1
 0 <= x244 <= 1
 0 <= x245 <= 1
 0 <= x246 <= 1
 0 <= x247 <= 1
 0 <= x248 <= 1
 0 <= x249 <= 1
 0 <= x250 <= 1
 0 <= x251 <= 1
 0 <= x252 <= 1
 0 <= x253 <= 1
 0 <= x254 <= 1
 0 <= x255 <= 1
 0 <= x256 <= 1
 0 <= x257 <= 1
 0 <= x258 <= 1
 0 <= x259 <= 1
 0 <= x260 <= 1
 0 <= x261 <= 1
 0 <= x262 <= 1
 0 <= x263 <= 1
 0 <= x264 <= 1
 0 <= x265 <= 1
 0 <= x266 <= 1
 0 <= x267 <= 1
 0 <= x268 <= 1
 0 <= x269 <= 1
 0 <= x270 <= 1
 0 <= x271 <= 1
 0 <= x272 <= 1
 0 <= x273 <= 1
 0 <= x274 <= 1
 0 <= x275 <= 1
 0 <= x276 <= 1
 0 <= x277 <= 1
 0 <= x278 <= 1
 0 <= x279 <= 1
 0 <= x280 <= 1
 0 <= x281 <= 1
 0 <= x282 <= 1
 0 <= x283 <= 1
 0 <= x284 <= 1
 0 <= x285 <= 1
 0 <= x286 <= 1
 0 <= x287 <= 1
 0 <= x288 <= 1
 0 <= x289 <= 1
 0 <= x290 <= 1
 0 <= x291 <= 1
 0 <= x292 <= 1
 0 <= x293 <= 1
 0 <= x294 <= 1
 0 <= x295 <= 1
 0 <= x296 <= 1
 0 <= x297 <= 1
 0 <= x298 <= 1
 0 <= x299 <= 1
 0 <= x300 <= 1
Binaries
 x251  x252  x253  x254  x255  x256  x257  x258  x259  x260  x261  x262  x263 
 x264  x265  x266  x267  x268  x269  x270  x271  x272  x273  x274  x275  x276 
 x277  x278  x279  x280  x281  x282  x283  x284  x285  x286  x287  x288  x289 
 x290  x291  x292  x293  x294  x295  x296  x297  x298  x299  x300 
End
